square_size = 9;
in_mine_pos = 
   [| 0, 0, 0, 0, 0, 0, 0, 0, 0 | 
      0, -1, 0, 0, 0, 0, 0, 0, 0 |
      0, 0, 0, 0, 0, -1, -1, 0, 0 |
      0, 0, 0, 0, 0, 0, 0, 0, 0 |
      0, 0, 0, 0, -1, 0, 0, 0, 0 |
      -1, 0, 0, 0, 0, -1, 0, 0, 0 |
      0, 0, -1, 0, 0, -1, 0, 0, 0 |
      0, 0, 0, 0, 0, 0, 0, -1, 0 |
      0, 0, 0, 0, -1, 0, 0, 0, 0 |] ;